50
50 50
1 35 531
2 35 278
3 34 535
4 33 265
5 32 162
6 32 948
7 30 627
8 30 239
9 29 679
10 29 963
11 29 165
12 29 394
13 28 62
14 28 880
15 28 324
16 27 545
17 27 399
18 26 802
19 26 460
20 25 354
21 24 135
22 23 528
23 23 200
24 22 9
25 22 639
26 22 197
27 21 419
28 20 452
29 20 920
30 19 620
31 17 459
32 17 620
33 17 694
34 17 110
35 16 656
36 16 559
37 15 836
38 15 237
39 14 353
40 13 539
41 13 66
42 13 567
43 12 535
44 12 879
45 12 102
46 11 76
47 11 525
48 11 635
49 11 195
50 10 712
